c turning on binary mode checking
c parsing input formula with 202048 variables and 780990 clauses
c finished parsing, read 15549038 bytes from proof file
c detected empty clause; start verification via backward checking
c 9667 of 780990 clauses in core                            
c 3599 of 416242 lemmas in core using 113423 resolution steps
c 0 RAT lemmas in core; 669 redundant literals in core lemmas
s VERIFIED
c verification time: 2.160 seconds
